c ! encoding i-pc 250
p cnf 354 420
115 -252 0
7 -253 0
243 -254 0
5 -255 0
109 -256 0
247 -257 0
258 -259 0
259 -260 0
188 -260 0
-98 -262 0
261 -262 0
262 -263 0
-188 -263 0
-63 -265 0
-152 -265 0
264 -266 0
265 -266 0
88 -267 0
63 -268 0
152 -268 0
268 -269 0
79 -269 0
152 -270 0
63 -270 0
271 0
272 -273 0
273 -274 0
-63 -274 0
270 274 -275 0
275 -276 0
-79 -276 0
277 -279 0
278 -279 0
258 -279 0
-88 -280 0
204 -282 0
283 -284 0
284 -285 0
-204 -285 0
287 -288 0
288 -289 0
136 -289 0
-170 -290 0
-136 -290 0
289 290 -291 0
291 -292 0
240 -292 0
136 -293 0
170 -293 0
293 -294 0
-240 -294 0
295 -296 0
16 -296 0
-136 -297 0
-170 -297 0
297 -298 0
-16 -298 0
300 -302 0
301 -302 0
302 -303 0
142 -303 0
34 -304 0
304 -305 0
-142 -305 0
306 -307 0
94 -307 0
301 -308 0
308 -309 0
142 -309 0
34 -310 0
-142 -310 0
309 310 -311 0
311 -312 0
312 -313 0
-94 -313 0
316 -321 0
317 -321 0
318 -321 0
319 -321 0
320 -321 0
281 -322 0
286 -322 0
299 -322 0
314 -322 0
321 -322 0
-247 -323 0
-109 -327 0
59 -329 0
-59 -330 0
93 -332 0
-93 -333 0
-5 -337 0
86 -340 0
-86 -341 0
-243 -343 0
-7 -345 0
206 -347 0
-206 -348 0
-115 -350 0
211 -352 0
-211 -353 0
1 0
2 0
-3 0
-4 0
-6 0
8 0
9 0
-10 0
-11 0
12 0
13 0
14 0
15 0
-17 0
-18 0
19 0
-20 0
-21 0
22 0
-23 0
24 0
-25 0
26 0
-27 0
28 0
29 0
30 0
-31 0
-32 0
33 0
-35 0
-36 0
37 0
-38 0
-39 0
-41 0
-42 0
-43 0
-44 0
-45 0
46 0
47 0
-48 0
49 0
50 0
-51 0
-52 0
-53 0
54 0
55 0
-56 0
-57 0
58 0
60 0
61 0
62 0
-64 0
-65 0
-66 0
67 0
-69 0
70 0
-71 0
-72 0
-73 0
-74 0
-75 0
77 0
-78 0
80 0
-81 0
-82 0
-83 0
84 0
-85 0
87 0
89 0
90 0
91 0
-92 0
-95 0
96 0
97 0
99 0
-100 0
-101 0
-102 0
103 0
104 0
-105 0
-106 0
107 0
-108 0
111 0
-112 0
113 0
114 0
116 0
-117 0
118 0
-119 0
-120 0
121 0
-123 0
124 0
125 0
-126 0
-127 0
-128 0
129 0
130 0
-131 0
132 0
133 0
134 0
-135 0
-137 0
-138 0
139 0
140 0
141 0
143 0
144 0
145 0
146 0
147 0
-148 0
-149 0
150 0
151 0
153 0
154 0
-155 0
-156 0
157 0
159 0
-160 0
-161 0
-162 0
-163 0
-164 0
165 0
166 0
167 0
-168 0
169 0
171 0
172 0
173 0
174 0
-175 0
176 0
177 0
178 0
179 0
180 0
181 0
-182 0
183 0
184 0
185 0
-186 0
187 0
-189 0
-190 0
191 0
-192 0
-193 0
-194 0
-195 0
-196 0
197 0
-198 0
-199 0
200 0
-201 0
202 0
203 0
205 0
207 0
208 0
209 0
210 0
-212 0
-213 0
214 0
215 0
216 0
-217 0
-218 0
219 0
220 0
-221 0
222 0
223 0
-224 0
225 0
226 0
227 0
228 0
229 0
-230 0
-233 0
234 0
235 0
236 0
-237 0
-238 0
239 0
241 0
242 0
-244 0
245 0
246 0
-248 0
-249 0
250 0
-351 352 0
-350 351 0
-349 350 0
-347 349 0
-344 345 0
-342 343 0
-337 338 0
-336 337 0
-329 331 0
-327 328 0
-345 346 0
-331 332 0
-328 329 0
94 313 0
-94 307 0
142 305 310 0
-258 259 279 0
-302 303 0
-301 302 308 0
-136 289 293 0
-278 279 0
-322 323 0
-311 312 0
-295 296 0
-340 342 0
240 294 0
-292 295 0
-240 292 297 0
136 290 297 0
-332 334 0
34 301 0
-288 289 0
-346 347 0
-312 313 0
-262 263 0
-170 287 293 0
-264 266 0
-265 266 0
231 261 0
-266 267 0
-304 305 0
-142 303 309 0
-251 252 253 254 255 256 257 330 333 341 348 353 0
-352 354 0
-303 306 0
-259 260 0
-297 298 0
-263 264 0
-63 268 270 0
-79 269 0
-261 262 0
152 265 272 0
-271 273 284 288 302 308 0
79 265 276 0
-283 284 0
-274 275 0
-306 307 0
-289 291 0
-326 327 0
-300 302 0
204 285 0
-68 283 0
-34 301 304 310 0
-260 264 0
-204 282 0
63 265 274 0
-268 269 0
-309 311 0
-270 275 0
-305 306 0
-293 294 0
16 298 0
-279 280 0
-308 309 0
-16 296 0
-273 274 0
-290 291 0
-275 276 0
76 300 0
-276 277 0
-277 279 0
-287 288 0
127 335 0
20 339 0
-188 260 278 0
188 263 0
-339 340 0
-291 292 0
-269 277 0
-76 300 304 312 0
-324 326 0
-98 258 0
-310 311 0
-272 273 0
-315 322 0
-284 285 0
-191 315 0
98 258 262 0
-334 336 0
-323 324 0
-343 344 0
23 325 0
